instances/in_40_20_6_4.lp
#const n = 40.
#const k = 20.
#const h = 6.
tile(1,17,14).
tile(2,7,10).
tile(3,8,10).
tile(4,18,4).
tile(5,19,2).
tile(6,18,7).
tile(7,18,4).
tile(8,19,10).
tile(9,5,7).
tile(10,4,5).
tile(11,18,11).
tile(12,2,8).
tile(13,17,15).
tile(14,7,13).
tile(15,15,8).
tile(16,9,2).
tile(17,15,15).
tile(18,19,15).
tile(19,20,11).
tile(20,20,6).
tile(21,10,8).
tile(22,3,15).
tile(23,10,12).
tile(24,9,6).
tile(25,4,20).
tile(26,13,1).
tile(27,12,7).
tile(28,18,8).
tile(29,18,19).
tile(30,19,5).
tile(31,4,13).
tile(32,16,19).
tile(33,19,3).
tile(34,19,18).
tile(35,5,18).
tile(36,5,14).
tile(37,6,10).
tile(38,16,18).
tile(39,19,12).
tile(40,10,1).
