minizinc/input/in_40_20_6_4.dzn
n = 40;
k = 20;
h = 6;
tiles = array2d(1..n, 1..2,
[ 17,14
, 7,10
, 8,10
, 18,4
, 19,2
, 18,7
, 18,4
, 19,10
, 5,7
, 4,5
, 18,11
, 2,8
, 17,15
, 7,13
, 15,8
, 9,2
, 15,15
, 19,15
, 20,11
, 20,6
, 10,8
, 3,15
, 10,12
, 9,6
, 4,20
, 13,1
, 12,7
, 18,8
, 18,19
, 19,5
, 4,13
, 16,19
, 19,3
, 19,18
, 5,18
, 5,14
, 6,10
, 16,18
, 19,12
, 10,1
]);